L=18;
no=6;
njo=[6,8,7,6,7,7];
djo=[7,9,6,9,9,10];
trab=[6,6,18,3,2,12,6,6,2,2,6,3,6,12,4,2,3,6,12,6,3,3,3,2,6,3,12,2,6,6,3,2,6,2,3,6,6,6,6,3,3,6,2,3,6,2,18,12,4,2];
nprec=9;
prec=[| 10, 16,
      | 11, 18,
      | 14, 19,
      | 17, 24,
      | 18, 26,
      | 19, 27,
      | 23, 31,
      | 29, 38,
      | 31, 41 |];


%%%%%%%%%%%%%%%%%%%%%%%%%%%%%%%%%%%%%%%%%%%%%%%%%%%%%%%%%%%%%%%%%%%%%%
%  6
%
%  6   1   6   7  53
%  6   6  18   3   2  12   6 
%  1   1   1   0   0
%  1   2   2   0   0
%  1   3   3   0   0
%  1   4   4   0   0
%  1   5   5   0   0
%  1   6   6   0   0
%
%  8   7  14   9  43
%  6   2   2   6   3   6  12   4   2 
%  2   1   7   0   0
%  2   2   8   0   0
%  2   3   9   0   0
%  2   4  10   0   1
%      3   2  16
%  2   5  11   0   1
%      3   4  18
%  2   6  12   0   0
%  2   7  13   0   0
%  2   8  14   0   1
%      3   5  19
%
%  7  15  21   6  33
%  3   6  12   6   3   3 
%  3   1  15   0   0
%  3   2  16   1   0
%      2   4  10
%  3   3  17   0   1
%      4   3  24
%  3   4  18   1   1
%      2   5  11
%      4   5  26
%  3   5  19   1   1
%      2   8  14
%      4   6  27
%  3   6  20   0   0
%  3   7  21   0   0
%
%  6  22  27   9  43
%  3   2   6   3  12   2   6   6   3 
%  4   1  22   0   0
%  4   2  23   0   1
%      5   4  31
%  4   3  24   1   0
%      3   3  17
%  4   4  25   0   0
%  4   5  26   1   0
%      3   4  18
%  4   6  27   1   0
%      3   5  19
%
%  7  28  34   9  40
%  2   6   2   3   6   6   6   6   3 
%  5   1  28   0   0
%  5   2  29   0   1
%      6   4  38
%  5   3  30   0   0
%  5   4  31   1   1
%      4   2  23
%      6   7  41
%  5   5  32   0   0
%  5   6  33   0   0
%  5   7  34   0   0
%
%  7  35  41  10  58
%  3   6   2   3   6   2  18  12   4   2 
%  6   1  35   0   0
%  6   2  36   0   0
%  6   3  37   0   0
%  6   4  38   1   0
%      5   2  29
%  6   5  39   0   0
%  6   6  40   0   0
%  6   7  41   1   0
%      5   4  31
%
% 90
